
80

54
80

54
59 80

54 53
59 80

54 53 11
59 80

54 53 11
59 80 81

54 53 11 48
59 80 81

54 53 11 48
59 80 81 86

54 53 11 48 23
59 80 81 86

54 53 11 48 23
59 68 81 86 80

54 53 11 48 23
59 68 81 86 80 99

54 53 11 48 23 10
59 68 81 86 80 99

54 53 44 48 23 10 11
59 68 81 86 80 99

53 48 44 16 23 10 11
54 68 59 86 80 99 81

53 48 44 16 23 10 11
54 68 59 86 80 99 81 89

53 48 44 40 23 10 11 16
54 68 59 86 80 99 81 89

53 48 44 47 23 10 11 16 40
54 68 59 86 80 99 81 89

53 48 44 47 23 10 11 16 40
54 56 59 68 80 99 81 89 86

53 48 44 47 23 10 11 16 40 8
54 56 59 68 80 99 81 89 86

48 47 44 40 25 10 11 16 23 8
53 54 59 68 56 99 81 89 86 80

48 47 44 40 33 10 11 16 23 8 25
53 54 59 68 56 99 81 89 86 80

47 40 44 23 33 41 11 16 10 8 25
48 53 59 68 54 99 81 89 86 80 56

47 40 44 23 33 41 11 16 10 8 25 1
48 53 59 68 54 99 81 89 86 80 56

44 40 41 23 33 4 11 16 10 8 25 1
47 53 48 68 54 59 81 89 86 80 56 99

44 40 41 23 33 4 11 16 10 8 25 1 2
47 53 48 68 54 59 81 89 86 80 56 99

41 40 27 23 33 4 11 16 10 8 25 1 2
44 53 47 68 54 48 81 89 86 80 56 99 59

41 40 30 23 33 4 27 16 10 8 25 1 2 11
44 53 47 68 54 48 81 89 86 80 56 99 59

41 40 30 23 33 4 27 16 10 8 25 1 2 11
44 53 47 68 54 48 50 89 86 80 56 99 59 81

41 40 30 23 33 4 28 16 10 8 25 1 2 11 27
44 53 47 68 54 48 50 89 86 80 56 99 59 81

41 40 30 23 33 4 28 16 10 8 25 1 2 11 27
44 53 47 68 54 48 50 89 86 80 56 99 59 81 91

41 40 30 23 33 4 28 16 10 8 25 1 2 11 27
44 53 47 68 54 48 50 89 86 80 56 99 59 81 91 97

41 40 30 38 33 4 28 23 10 8 25 1 2 11 27 16
44 53 47 68 54 48 50 89 86 80 56 99 59 81 91 97

41 40 30 38 33 4 28 23 10 8 25 1 2 11 27 16
44 53 47 68 54 48 50 89 86 80 56 99 59 81 91 97 96

44 41 30 40 33 4 28 38 10 8 25 1 2 11 27 16 23
47 53 48 68 54 59 50 89 86 80 56 99 94 81 91 97 96

44 41 30 40 33 4 28 38 32 8 25 1 2 11 27 16 23 10
47 53 48 68 54 59 50 89 86 80 56 99 94 81 91 97 96

44 41 30 40 33 4 28 38 32 8 25 1 2 11 27 16 23 10
47 53 48 68 54 59 50 89 77 80 56 99 94 81 91 97 96 86

44 41 30 40 33 4 28 38 32 8 25 1 2 11 27 16 23 10 29
47 53 48 68 54 59 50 89 77 80 56 99 94 81 91 97 96 86

44 41 30 40 33 4 28 38 32 8 25 1 2 11 27 16 23 10 29
46 47 48 53 54 59 50 89 68 80 56 99 94 81 91 97 96 86 77

44 41 30 40 33 4 28 38 32 8 25 1 2 11 27 16 23 10 29
46 47 48 53 54 59 50 89 68 67 56 99 94 81 91 97 96 86 77 80

44 41 30 40 36 4 28 38 32 33 25 1 2 11 27 16 23 10 29 8
46 47 48 53 54 59 50 89 68 67 56 99 94 81 91 97 96 86 77 80

44 41 30 40 36 4 28 38 32 33 25 1 2 11 27 16 23 10 29 8
46 47 48 53 54 59 50 89 68 67 56 99 94 81 91 97 96 86 77 80 70

46 44 30 40 41 4 28 38 32 36 25 1 2 11 27 16 23 10 29 8 33
47 53 48 68 54 59 50 89 77 67 56 99 94 81 91 97 96 86 93 80 70

46 44 30 40 41 4 28 38 32 36 35 1 2 11 27 16 23 10 29 8 33 25
47 53 48 68 54 59 50 89 77 67 56 99 94 81 91 97 96 86 93 80 70

44 41 30 40 36 4 28 38 32 33 35 1 2 11 27 16 23 10 29 8 20 25
46 47 48 68 53 59 50 89 77 67 54 99 94 81 91 97 96 86 93 80 70 56

44 41 30 40 36 4 28 38 32 33 35 1 2 11 27 16 23 10 29 8 20 25 15
46 47 48 68 53 59 50 89 77 67 54 99 94 81 91 97 96 86 93 80 70 56

41 40 30 38 36 21 28 23 32 33 35 4 2 11 27 16 1 10 29 8 20 25 15
44 46 48 68 47 59 50 89 77 67 53 99 94 81 91 97 96 86 93 80 70 56 54

41 40 30 38 36 21 28 23 32 33 35 12 2 11 27 16 1 10 29 8 20 25 15 4
44 46 48 68 47 59 50 89 77 67 53 99 94 81 91 97 96 86 93 80 70 56 54

41 40 30 38 36 21 28 23 32 33 35 12 2 11 27 16 1 10 29 8 20 25 15 4
44 46 48 68 47 59 50 89 77 67 53 88 94 81 91 97 96 86 93 80 70 56 54 99

41 40 30 38 36 21 28 23 32 33 35 12 2 11 27 16 1 10 29 8 20 25 15 4
44 46 48 68 47 59 50 89 77 67 53 62 94 81 91 97 96 86 93 80 70 56 54 99 88

44 40 41 38 36 30 28 23 32 33 35 21 2 11 27 16 1 10 29 8 20 25 15 4 12
46 47 48 68 53 59 50 89 77 67 54 62 94 81 91 97 96 86 93 80 70 56 98 99 88

44 40 41 38 36 34 28 23 32 33 35 21 30 11 27 16 1 10 29 8 20 25 15 4 12 2
46 47 48 68 53 59 50 89 77 67 54 62 94 81 91 97 96 86 93 80 70 56 98 99 88

44 40 41 38 36 34 28 23 32 33 35 21 30 11 27 16 1 10 29 8 20 25 15 4 12 2
46 47 48 68 53 59 50 89 77 67 54 62 72 81 91 97 96 86 93 80 70 56 98 99 88 94

44 40 41 38 36 39 28 23 32 33 35 21 34 11 27 16 1 10 29 8 20 25 15 4 12 2 30
46 47 48 68 53 59 50 89 77 67 54 62 72 81 91 97 96 86 93 80 70 56 98 99 88 94

44 40 41 38 36 39 28 23 32 33 35 21 34 11 27 16 1 10 29 8 20 25 15 4 12 2 30
45 47 46 68 53 48 50 89 77 67 54 62 59 81 91 97 96 86 93 80 70 56 98 99 88 94 72

44 40 41 38 36 39 28 23 32 33 35 21 34 11 27 16 1 10 29 8 20 25 15 4 12 2 30
45 47 46 68 53 48 50 89 77 67 54 62 59 63 91 97 96 86 93 80 70 56 98 99 88 94 72 81

45 40 44 38 36 39 41 23 32 33 35 21 34 28 27 16 1 10 29 8 20 25 15 4 12 2 30 11
46 47 48 68 53 59 50 89 77 67 54 62 72 63 91 97 96 86 93 80 70 56 98 99 88 94 82 81

45 40 44 38 36 39 41 23 32 33 35 21 34 28 27 16 1 10 29 8 20 25 15 4 12 2 30 11
46 47 48 68 53 59 50 89 77 67 54 62 72 63 91 97 96 86 93 80 70 56 98 99 88 94 82 81 84

46 40 45 38 36 39 44 23 32 33 35 21 34 41 27 16 1 10 29 8 20 25 15 4 12 2 30 11 28
47 53 48 68 54 59 50 89 77 67 56 62 72 63 52 97 96 86 93 80 70 91 98 99 88 94 82 81 84

46 40 45 38 36 39 44 23 32 33 35 21 34 41 27 16 1 10 29 8 20 25 15 4 12 2 30 11 28
47 53 48 68 54 59 50 89 77 67 56 62 72 63 52 97 96 86 93 80 70 91 98 99 88 94 82 81 84 57

47 40 46 38 36 39 45 23 32 33 35 21 34 41 44 16 1 10 29 8 20 25 15 4 12 2 30 11 28 27
48 53 50 68 54 59 52 89 77 67 56 62 72 63 57 97 96 86 93 80 70 91 98 99 88 94 82 81 84 73

47 40 46 38 36 39 45 23 32 33 35 21 34 41 44 16 1 10 29 8 20 25 15 4 12 2 30 11 28 27
48 53 50 68 54 59 52 89 77 67 56 62 72 63 57 97 96 86 93 80 70 91 98 99 88 94 82 81 84 73 76

48 40 47 38 36 39 46 23 32 33 35 21 34 41 45 16 1 10 29 8 20 25 15 4 12 2 30 11 28 27 44
50 53 52 58 54 59 57 68 77 67 56 62 72 63 73 89 96 86 93 80 70 91 98 99 88 94 82 81 84 97 76

48 40 47 38 36 39 46 23 32 33 35 21 34 41 45 16 1 10 29 8 20 25 15 4 12 2 30 11 28 27 44 3
50 53 52 58 54 59 57 68 77 67 56 62 72 63 73 89 96 86 93 80 70 91 98 99 88 94 82 81 84 97 76

47 43 46 40 36 39 45 38 32 33 35 21 34 41 44 23 1 10 29 8 20 25 15 4 12 2 30 11 28 27 16 3
48 50 52 53 54 59 57 58 77 67 56 62 72 63 73 68 96 86 93 80 70 91 98 99 88 94 82 81 84 97 76 89

47 43 46 40 36 39 45 38 32 33 35 21 34 41 44 23 1 10 29 8 20 25 15 4 12 2 30 11 28 27 16 3
48 50 52 53 54 59 57 58 77 67 56 62 72 63 73 61 96 86 93 80 70 91 98 99 88 94 82 81 84 97 76 89 68

48 47 46 43 36 39 45 40 32 33 35 21 34 41 44 38 1 10 29 8 20 25 15 4 12 2 30 11 28 27 16 3 23
50 53 52 58 54 59 57 61 77 67 56 62 72 63 73 68 87 86 93 80 70 91 98 99 88 94 82 81 84 97 76 89 96

48 47 46 43 36 39 45 40 32 33 35 21 34 41 44 38 5 10 29 8 20 25 15 4 12 2 30 11 28 27 16 3 23 1
50 53 52 58 54 59 57 61 77 67 56 62 72 63 73 68 87 86 93 80 70 91 98 99 88 94 82 81 84 97 76 89 96

47 43 46 40 36 39 45 38 32 33 35 21 34 41 44 23 6 10 29 8 20 25 15 4 12 2 30 11 28 27 16 3 5 1
48 50 52 53 54 59 57 58 77 67 56 62 72 63 73 68 61 86 93 80 70 91 98 99 88 94 82 81 84 97 76 89 96 87

47 43 46 40 36 39 45 38 32 33 35 21 34 41 44 23 6 10 29 8 20 25 15 4 12 2 30 11 28 27 16 3 5 1
48 50 52 53 54 59 57 58 77 67 56 62 72 63 73 68 61 86 93 80 70 91 98 99 88 94 82 81 84 97 76 89 96 87 83

48 47 46 43 36 39 45 40 32 33 35 21 34 41 44 23 38 10 29 8 20 25 15 4 12 2 30 11 28 27 16 3 5 1 6
50 53 52 58 54 59 57 61 77 67 56 62 72 63 73 68 83 78 93 80 70 91 98 99 88 94 82 81 84 97 76 89 96 87 86

48 47 46 43 36 39 45 40 32 33 35 21 34 41 44 23 38 19 29 8 20 25 15 4 12 2 30 11 28 27 16 3 5 1 6 10
50 53 52 58 54 59 57 61 77 67 56 62 72 63 73 68 83 78 93 80 70 91 98 99 88 94 82 81 84 97 76 89 96 87 86

48 47 46 43 36 39 45 40 32 33 35 21 34 41 44 23 38 19 29 8 20 25 15 4 12 2 30 11 28 27 16 3 5 1 6 10
50 53 52 58 54 59 57 61 77 67 56 62 72 63 73 68 83 78 93 80 70 91 98 99 88 94 82 81 84 97 76 89 96 87 86 85

48 47 46 43 36 39 45 40 32 33 35 21 34 41 44 23 38 19 29 8 20 25 15 4 12 2 30 11 28 27 16 3 5 1 6 10
50 53 52 58 54 59 57 61 74 67 56 62 72 63 73 68 83 77 93 80 70 91 98 99 88 94 82 81 84 97 76 89 96 87 86 85 78

48 47 46 43 36 39 45 40 42 33 35 21 34 41 44 23 38 32 29 8 20 25 15 4 12 2 30 11 28 27 16 3 5 1 6 10 19
50 53 52 58 54 59 57 61 74 67 56 62 72 63 73 68 83 77 93 80 70 91 98 99 88 94 82 81 84 97 76 89 96 87 86 85 78

48 47 46 43 36 39 45 40 42 33 35 21 34 41 44 23 38 32 29 8 20 25 15 4 12 2 30 11 28 27 16 3 5 1 6 10 19
50 53 52 58 54 59 57 61 69 67 56 62 72 63 73 68 83 77 74 80 70 91 98 99 88 94 82 81 84 97 76 89 96 87 86 85 78 93

50 48 46 47 36 39 45 40 43 33 35 21 34 41 44 23 38 32 42 8 20 25 15 4 12 2 30 11 28 27 16 3 5 1 6 10 19 29
52 53 57 58 54 59 63 61 69 67 56 62 72 81 73 68 83 77 74 80 70 91 98 99 88 94 82 90 84 97 76 89 96 87 86 85 78 93

50 48 46 47 36 39 45 40 43 33 35 21 34 41 44 23 38 32 42 8 20 25 15 4 12 2 30 11 28 27 16 3 5 1 6 10 19 29 18
52 53 57 58 54 59 63 61 69 67 56 62 72 81 73 68 83 77 74 80 70 91 98 99 88 94 82 90 84 97 76 89 96 87 86 85 78 93

50 48 46 47 36 39 45 40 43 33 35 21 34 41 44 23 38 32 42 8 20 25 15 4 12 2 30 11 28 27 16 3 5 1 6 10 19 29 18
52 53 57 58 54 59 63 61 69 67 56 62 72 81 73 68 83 77 74 80 70 91 98 99 88 94 82 90 84 97 76 89 96 87 86 85 78 93 95

50 48 46 47 36 39 45 40 43 33 35 21 34 41 44 23 38 32 42 8 20 25 15 4 12 2 30 11 28 27 16 3 5 1 6 10 19 29 18
52 53 57 58 54 59 63 61 69 64 56 62 72 81 73 68 83 77 74 67 70 91 98 99 88 94 82 90 84 97 76 89 96 87 86 85 78 93 95 80

52 50 46 47 48 39 45 40 43 36 35 21 34 41 44 23 38 32 42 33 20 25 15 4 12 2 30 11 28 27 16 3 5 1 6 10 19 29 18 8
53 54 57 58 56 59 63 61 69 64 71 62 72 81 73 68 83 77 74 67 70 91 98 99 88 94 82 90 84 97 76 89 96 87 86 85 78 93 95 80

52 51 46 47 50 39 45 40 43 48 35 21 34 41 44 23 38 32 42 36 20 25 15 4 12 2 30 11 28 27 16 3 5 1 6 10 19 29 18 8 33
53 54 57 58 56 59 63 61 69 64 71 62 72 81 73 68 83 77 74 67 70 91 98 99 88 94 82 90 84 97 76 89 96 87 86 85 78 93 95 80

52 51 46 47 50 39 45 40 43 48 35 21 34 41 44 23 38 32 42 36 20 25 15 4 12 2 30 11 28 27 16 3 5 1 6 10 19 29 18 8 33
53 54 57 58 56 59 63 61 69 64 71 62 72 81 73 68 83 77 74 66 70 91 98 99 88 94 82 90 84 97 76 89 96 87 86 85 78 93 95 80 67

52 51 46 47 50 39 45 40 43 48 35 21 34 41 44 23 38 32 42 36 20 25 15 4 12 2 30 11 28 27 16 3 5 1 6 10 19 29 18 8 33
53 54 57 58 56 59 63 61 69 60 71 62 72 81 73 68 83 77 74 66 64 91 98 99 88 94 82 90 84 97 76 89 96 87 86 85 78 93 95 80 67 70

52 51 46 47 50 39 45 40 43 48 35 21 34 41 44 23 38 32 42 36 31 25 15 4 12 2 30 11 28 27 16 3 5 1 6 10 19 29 18 8 33 20
53 54 57 58 56 59 63 61 69 60 71 62 72 81 73 68 83 77 74 66 64 91 98 99 88 94 82 90 84 97 76 89 96 87 86 85 78 93 95 80 67 70

52 51 46 47 50 39 45 40 43 48 35 21 34 41 44 23 38 32 42 36 31 25 15 4 12 2 30 11 28 27 16 3 5 1 6 10 19 29 18 8 33 20
53 54 57 58 56 59 63 61 69 60 71 62 72 81 73 68 83 77 74 66 64 91 98 99 88 94 82 90 84 97 76 89 96 87 86 85 78 93 95 80 67 70 100

52 51 46 47 50 39 45 40 43 48 35 21 34 41 44 23 38 32 42 36 31 25 15 4 12 2 30 11 28 27 16 3 5 1 6 10 19 29 18 8 33 20 22
53 54 57 58 56 59 63 61 69 60 71 62 72 81 73 68 83 77 74 66 64 91 98 99 88 94 82 90 84 97 76 89 96 87 86 85 78 93 95 80 67 70 100

52 51 46 47 50 39 45 40 43 48 35 21 34 41 44 23 38 32 42 36 31 25 15 4 12 2 30 11 28 27 16 3 5 1 6 10 19 29 18 8 33 20 22 9
53 54 57 58 56 59 63 61 69 60 71 62 72 81 73 68 83 77 74 66 64 91 98 99 88 94 82 90 84 97 76 89 96 87 86 85 78 93 95 80 67 70 100

52 51 46 47 50 39 45 40 43 48 35 21 34 41 44 23 38 32 42 36 31 25 15 4 12 2 30 11 28 27 16 3 5 1 6 10 19 29 18 8 33 20 22 9
53 54 57 58 56 59 63 61 69 60 65 62 72 81 73 68 83 77 74 66 64 71 98 99 88 94 82 90 84 97 76 89 96 87 86 85 78 93 95 80 67 70 100 91

52 51 46 47 50 39 45 40 43 48 49 21 34 41 44 23 38 32 42 36 31 35 15 4 12 2 30 11 28 27 16 3 5 1 6 10 19 29 18 8 33 20 22 9 25
53 54 57 58 56 59 63 61 69 60 65 62 72 81 73 68 83 77 74 66 64 71 98 99 88 94 82 90 84 97 76 89 96 87 86 85 78 93 95 80 67 70 100 91

52 51 46 47 50 39 45 40 43 48 49 21 34 41 44 23 38 32 42 36 31 35 15 4 12 2 30 11 28 27 16 3 5 1 6 10 19 29 18 8 33 20 22 9 25
53 54 57 58 56 59 63 61 69 60 65 62 72 81 73 68 83 77 74 66 64 71 98 99 88 94 82 90 84 97 76 89 96 87 86 85 78 93 95 80 67 70 100 91 92

52 51 46 47 50 39 45 40 43 48 49 21 34 41 44 23 38 32 42 36 31 35 17 4 12 2 30 11 28 27 16 3 5 1 6 10 19 29 18 8 33 20 22 9 25 15
53 54 57 58 56 59 63 61 69 60 65 62 72 81 73 68 83 77 74 66 64 71 98 99 88 94 82 90 84 97 76 89 96 87 86 85 78 93 95 80 67 70 100 91 92

51 50 46 47 49 39 45 40 43 48 37 21 34 41 44 23 38 32 42 36 31 35 17 4 12 2 30 11 28 27 16 3 5 1 6 10 19 29 18 8 33 20 22 9 25 15
52 53 57 58 54 59 63 61 69 60 56 62 72 81 73 68 83 77 74 66 64 71 65 99 88 94 82 90 84 97 76 89 96 87 86 85 78 93 95 80 67 70 100 91 92 98

51 50 46 47 49 39 45 40 43 48 37 21 34 41 44 23 38 32 42 36 31 35 26 4 12 2 30 11 28 27 16 3 5 1 6 10 19 29 18 8 33 20 22 9 25 15 17
52 53 57 58 54 59 63 61 69 60 56 62 72 81 73 68 83 77 74 66 64 71 65 99 88 94 82 90 84 97 76 89 96 87 86 85 78 93 95 80 67 70 100 91 92 98

50 49 46 47 48 39 45 40 43 36 37 21 34 41 44 23 38 32 42 33 31 35 26 7 12 2 30 11 28 27 16 3 5 1 6 10 19 29 18 8 4 20 22 9 25 15 17
51 52 57 58 53 59 63 61 69 60 54 62 72 81 73 68 83 77 74 66 64 71 56 99 88 94 82 90 84 97 76 89 96 87 86 85 78 93 95 80 67 70 100 91 92 98 65

50 49 46 47 48 39 45 40 43 36 37 21 34 41 44 23 38 32 42 33 31 35 26 7 12 2 30 11 28 27 16 3 5 1 6 10 19 29 18 8 4 20 22 9 25 15 17
51 52 55 58 53 57 63 61 69 60 54 59 72 81 73 68 83 77 74 66 64 71 56 62 88 94 82 90 84 97 76 89 96 87 86 85 78 93 95 80 67 70 100 91 92 98 65 99

51 49 50 47 48 46 45 40 43 36 37 39 34 41 44 23 38 32 42 33 31 35 26 21 12 2 30 11 28 27 16 3 5 1 6 10 19 29 18 8 4 20 22 9 25 15 17 7
52 53 55 58 54 57 63 61 69 60 56 59 72 81 73 68 83 77 74 66 64 71 65 62 88 94 82 90 84 97 76 89 96 87 86 85 78 93 95 80 67 70 100 91 92 98 75 99

51 49 50 47 48 46 45 40 43 36 37 39 34 41 44 23 38 32 42 33 31 35 26 21 12 2 30 11 28 27 16 3 5 1 6 10 19 29 18 8 4 20 22 9 25 15 17 7 13
52 53 55 58 54 57 63 61 69 60 56 59 72 81 73 68 83 77 74 66 64 71 65 62 88 94 82 90 84 97 76 89 96 87 86 85 78 93 95 80 67 70 100 91 92 98 75 99

50 49 46 47 48 39 45 40 43 36 37 21 34 41 44 23 38 32 42 33 31 35 26 13 14 2 30 11 28 27 16 3 5 1 6 10 19 29 18 8 4 20 22 9 25 15 17 7 12
51 53 52 58 54 55 63 61 69 60 56 57 72 81 73 68 83 77 74 66 64 71 65 59 88 94 82 90 84 97 76 89 96 87 86 85 78 93 95 80 67 70 100 91 92 98 75 99 62

50 49 46 47 48 39 45 40 43 36 37 24 34 41 44 23 38 32 42 33 31 35 26 13 21 2 30 11 28 27 16 3 5 1 6 10 19 29 18 8 4 20 22 9 25 15 17 7 12 14
51 53 52 58 54 55 63 61 69 60 56 57 72 81 73 68 83 77 74 66 64 71 65 59 88 94 82 90 84 97 76 89 96 87 86 85 78 93 95 80 67 70 100 91 92 98 75 99 62

50 49 46 47 48 39 45 40 43 36 37 24 34 41 44 23 38 32 42 33 31 35 26 13 21 2 30 11 28 27 16 3 5 1 6 10 19 29 18 8 4 20 22 9 25 15 17 7 12 14
51 53 52 58 54 55 63 61 69 60 56 57 72 81 73 68 83 77 74 66 64 71 65 59 79 94 82 90 84 97 76 89 96 87 86 85 78 93 95 80 67 70 100 91 92 98 75 99 62 88

